solution status: optimal solution found
objective value:                                   35
x45                                                 1 	(obj:1)
x47                                                 1 	(obj:1)
x49                                                 1 	(obj:1)
x53                                                 1 	(obj:1)
x55                                                 1 	(obj:1)
x61                                                 1 	(obj:1)
x62                                                 1 	(obj:1)
x63                                                 1 	(obj:1)
x64                                                 1 	(obj:1)
x65                                                 1 	(obj:1)
x66                                                 1 	(obj:1)
x70                                                 1 	(obj:1)
x72                                                 1 	(obj:1)
x74                                                 1 	(obj:1)
x75                                                 1 	(obj:1)
x76                                                 1 	(obj:1)
x77                                                 1 	(obj:1)
x78                                                 1 	(obj:1)
x82                                                 1 	(obj:1)
x84                                                 1 	(obj:1)
x86                                                 1 	(obj:1)
x88                                                 1 	(obj:1)
x90                                                 1 	(obj:1)
x91                                                 1 	(obj:1)
x92                                                 1 	(obj:1)
x94                                                 1 	(obj:1)
x101                                                1 	(obj:1)
x102                                                1 	(obj:1)
x104                                                1 	(obj:1)
x106                                                1 	(obj:1)
x111                                                1 	(obj:1)
x112                                                1 	(obj:1)
x114                                                1 	(obj:1)
x119                                                1 	(obj:1)
x121                                                1 	(obj:1)
thing.horiz_flush_hole_y                           15 	(obj:0)
thing.horiz_flush_hole_z                           18 	(obj:0)
thing.thing.chamber[2].thingy.r2c_y                   18 	(obj:0)
thing.thing.chamber[2].thingy.r2c_z                   19 	(obj:0)
thing.thing.chamber[1].thingy.p0_y                   21 	(obj:0)
thing.thing.chamber[1].thingy.p0_z                   22 	(obj:0)
thing.pump2_hole_y                                 19 	(obj:0)
thing.pump2_hole_z                                 19 	(obj:0)
thing.thing.chamber[1].thingy.r1c_y                   20 	(obj:0)
thing.thing.chamber[1].thingy.r1c_z                   19 	(obj:0)
thing.thing.dead_buffer_y                          21 	(obj:0)
thing.thing.dead_buffer_z                          19 	(obj:0)
thing.thing.chamber[2].thingy.r4c_y                   18 	(obj:0)
thing.thing.chamber[2].thingy.r4c_z                   18 	(obj:0)
thing.bead_flush_hole_y                            17 	(obj:0)
thing.bead_flush_hole_z                            18 	(obj:0)
thing.thing.chamber[1].thingy.v13_y                   18 	(obj:0)
thing.thing.chamber[1].thingy.v13_z                   20 	(obj:0)
thing.pump0_hole_y                                 19 	(obj:0)
thing.pump0_hole_z                                 20 	(obj:0)
thing.thing.chamber[2].thingy.p0_y                   21 	(obj:0)
thing.thing.chamber[2].thingy.p0_z                   23 	(obj:0)
thing.bead_trap_ctrl_hole_y                        14 	(obj:0)
thing.bead_trap_ctrl_hole_z                        17 	(obj:0)
thing.thing.chamber[0].thingy.v12_y                   18 	(obj:0)
thing.thing.chamber[0].thingy.v12_z                   21 	(obj:0)
thing.thing.chamber[2].thingy.v10_y                   19 	(obj:0)
thing.thing.chamber[2].thingy.v10_z                   22 	(obj:0)
thing.thing.dead_bead_y                            17 	(obj:0)
thing.thing.dead_bead_z                            19 	(obj:0)
thing.thing.chamber[2].thingy.v11_y                   21 	(obj:0)
thing.thing.chamber[2].thingy.v11_z                   21 	(obj:0)
thing.thing.dead_cell_y                            18 	(obj:0)
thing.thing.dead_cell_z                            22 	(obj:0)
thing.thing.chamber[2].thingy.r1c_y                   20 	(obj:0)
thing.thing.chamber[2].thingy.r1c_z                   23 	(obj:0)
thing.thing.chamber[1].thingy.p2_y                   22 	(obj:0)
thing.thing.chamber[1].thingy.p2_z                   23 	(obj:0)
thing.thing.chamber[1].thingy.v12_y                   19 	(obj:0)
thing.thing.chamber[1].thingy.v12_z                   21 	(obj:0)
thing.thing.chamber[0].thingy.p1_y                   23 	(obj:0)
thing.thing.chamber[0].thingy.p1_z                   23 	(obj:0)
thing.thing.chamber[0].thingy.v13_y                   17 	(obj:0)
thing.thing.chamber[0].thingy.v13_z                   21 	(obj:0)
